50
    1   500   500
    2   418   418
    3   276   276
    4   151   151
    5    26    26
    6   168   168
    7    79    79
    8   244   244
    9   364   364
   10   146   146
   11    18    18
   12   165   165
   13   301   301
   14   466   466
   15   180   180
   16   452   452
   17   193   193
   18   347   347
   19   266   266
   20   303   303
   21   272   272
   22   271   271
   23   347   347
   24   299   299
   25   160   160
   26   259   259
   27   132   132
   28   370   370
   29   133   133
   30   431   431
   31   469   469
   32   444   444
   33   393   393
   34   182   182
   35   212   212
   36   174   174
   37   201   201
   38   223   223
   39   474   474
   40    58    58
   41   357   357
   42   350   350
   43   420   420
   44    11    11
   45   496   496
   46    92    92
   47   475   475
   48   288   288
   49     1     1
   50     1     1
4352
